VRPTWMS/instances/mip/freight/5/N5-C_DV10-C_SV50_F12_13_No_1.log

Gurobi 6.0.4 (win64) logging started 06/13/15 23:06:34

Warning: unknown variable 'kDash_dN' in bounds section
Read LP format model from file C:\MT\repository\VRPTWMS\instances\mip\freight\N5-C_DV10-C_SV50_F12_13_No_1.lp
Reading time = 0.00 seconds
(null): 161 rows, 110 columns, 603 nonzeros
Optimize a model with 161 rows, 110 columns and 603 nonzeros
Model has 180 quadratic constraints
WARNING: Only barrier available for SOCP models
Coefficient statistics:
  Matrix range    [1e+00, 1e+02]
  Objective range [7e+00, 1e+03]
  Bounds range    [1e+00, 1e+02]
  RHS range       [1e+00, 1e+02]
Presolve removed 19 rows and 9 columns
Presolve time: 0.02s
Presolved: 597 rows, 341 columns, 2596 nonzeros
Variable types: 215 continuous, 126 integer (92 binary)
Found heuristic solution: objective 5202.3200000
Optimize a model with 597 rows, 341 columns and 2596 nonzeros
Coefficient statistics:
  Matrix range    [1e+00, 1e+02]
  Objective range [7e+00, 1e+03]
  Bounds range    [1e+00, 1e+02]
  RHS range       [1e+00, 1e+02]
Presolve removed 26 rows and 16 columns
Presolved: 571 rows, 325 columns, 2470 nonzeros


Root relaxation: objective 1.238892e+02, 93 iterations, 0.00 seconds

    Nodes    |    Current Node    |     Objective Bounds      |     Work
 Expl Unexpl |  Obj  Depth IntInf | Incumbent    BestBd   Gap | It/Node Time

     0     0  123.88918    0   41 5202.32000  123.88918  97.6%     -    0s
H    0     0                    4190.4400000  123.88918  97.0%     -    0s
     0     0 1138.93746    0   57 4190.44000 1138.93746  72.8%     -    0s
H    0     0                    4170.2800000 1138.93746  72.7%     -    0s
     0     0 1156.60373    0   45 4170.28000 1156.60373  72.3%     -    0s
     0     0 1158.11845    0   47 4170.28000 1158.11845  72.2%     -    0s
H    0     0                    3204.3000000 1158.11845  63.9%     -    0s
     0     0 1159.33583    0   39 3204.30000 1159.33583  63.8%     -    0s
     0     0 1159.35528    0   70 3204.30000 1159.35528  63.8%     -    0s
     0     0 1159.35528    0   70 3204.30000 1159.35528  63.8%     -    0s
     0     2 1159.35528    0   70 3204.30000 1159.35528  63.8%     -    0s
H   97    49                    3196.4500000 1173.41413  63.3%  35.9    0s
H  193    90                    3193.5600000 1177.37746  63.1%  29.9    0s
*  309   105              17    3187.6900000 1202.75336  62.3%  29.5    0s

Cutting planes:
  Gomory: 4
  Cover: 64
  Implied bound: 116
  Clique: 33
  MIR: 44
  Flow cover: 6
  GUB cover: 16

Explored 2840 nodes (54760 simplex iterations) in 1.26 seconds
Thread count was 2 (of 4 available processors)

Optimal solution found (tolerance 1.00e-04)
Best objective 3.187690000000e+03, best bound 3.187690000000e+03, gap 0.0%
k_c1	10.0
k_c2	8.0
k_c3	5.0
k_c4	3.999999999999929
k_c5	10.0
k_dN	-0.0
kDash_c1	4.0
kDash_c2	2.0
kDash_c3	-0.0
kDash_c4	8.0
kDash_c5	4.0
kDash_dN	-0.0
o_1	-0.0
o_2	0.0
o_3	0.0
o_4	1.0
o_5	-0.0
p_1	0.0
p_2	1.0
p_3	0.0
p_4	1.0
p_5	-0.0
phi_c1	2.0000000000000044
phi_c2	5.999999999999999
phi_c3	10.0
phi_c4	6.999999999999999
phi_c5	9.0
phi_d0	12.0
phi_dN	-0.0
pi_c1	-0.0
pi_c2	7.999999999999929
pi_c3	10.0
pi_c4	14.0
pi_c5	0.0
pi_dN	-0.0
tauD_c1	70.0
tauD_c2	40.00000000000001
tauD_c3	77.0
tauD_c4	17.0
tauD_c5	8.0
tauD_d0	-0.0
tauD_dN	100.0
tauS_c1	85.0
tauS_c2	29.0
tauS_c3	87.0
tauS_c4	5.0
tauS_c5	84.0
tauS_d0	-0.0
tauS_dN	56.99999999999979
x_c1_dN	1.0
x_c2_c1	1.0
x_c3_dN	1.0
x_c4_c2	1.0
x_c5_c4	1.0
x_d0_c3	1.0
x_d0_c5	1.0
z_c2_dN	0.9999999999999964
z_c4_c2	1.0
z_d0_c4	1.0
